&CONTROL
    calculation = "vc-relax"
    max_seconds =  8.64000e+04
    pseudo_dir  = "/home1/05751/tg850503/pp/KSPP"
    forc_conv_thr =  1.00000e-05
    etot_conv_thr =  1.00000e-06
    restart_mode = 'from_scratch',
    tstress = .true.
    tprnfor = .true.
    nstep = 300
    outdir = './tmp'
    dt = 15
/

&SYSTEM
    degauss     =  1.00000e-02
    ecutrho     =  40.00000e+01
    ecutwfc     =  10.00000e+01
    ibrav       = 0
    nat         = 8
    ntyp        = 3
    occupations = "fixed"
    smearing    = "gaussian"
/

&ELECTRONS
    diagonalization='david'
    mixing_mode = 'plain'
    mixing_beta = 0.3
    conv_thr = 1.0d-8
/
&ions
ion_dynamics='damp'
/
&cell
cell_dynamics = 'damp-w'
press = 1900
wmass = 0.00010
/

K_POINTS {automatic}
 4  4  4  0 0 0

CELL_PARAMETERS {bohr}
 9.0479610    0.0000000    0.0000000
 0.0000000    8.0785366    0.0000000
 0.0000000    0.0000000    5.4367134

ATOMIC_SPECIES
 Al   1.0   Al.GGA-PBE-Epaw.UPF
  H   1.0   H.GGA-PBE-Epaw.UPF
  O   1.0   O.GGA-PBE-Epaw.UPF

ATOMIC_POSITIONS {crystal}
Al      0.000000   0.224400   0.000000
Al      0.500000   0.775600   0.500000
O       0.357500   0.498800   0.000000
O       0.857500   0.501200   0.500000
O       0.656400   0.003200   0.000000
O       0.156400   0.996800   0.500000
H       0.484700   0.303000   0.000000
H       0.984700   0.697000   0.500000

