Phonon
&inputph
tr2_ph=1.0d-14
ldisp = .true.
verbosity = 'high'
epsil = .true.
fildyn = 'dyn'
outdir = './tmp'
amass(1) = 26.98154
amass(2) = 15.99900
nq1 = 4
nq2 = 4
nq3 = 4
/
